* #variable= 55 #constraint= 75
min: 1 x4 -1 x2 x4 +1 x10 -1 x8 x10 +1 x22 -1 x20 x22 +1 x27 -1 x25 x27 +1 x33 -1 x31 x33 +1 x37 -1 x35 x37 +1 x49 -1 x47 x49 +1 x54 -1 x52 x54 +1 x55 -1 x53 x55 +1 x52 +1 x53 -1 x48 x52 -1 x48 x53 -1 x52 x53 +1 x48 x52 x53 +1 x47 +1 x48 -1 x36 x47 -1 x36 x48 -1 x47 x48 +1 x36 x47 x48 +1 x35 +1 x36 -1 x32 x35 -1 x32 x36 -1 x35 x36 +1 x32 x35 x36 +1 x31 +1 x32 -1 x26 x31 -1 x26 x32 -1 x31 x32 +1 x26 x31 x32 +1 x25 +1 x26 -1 x21 x25 -1 x21 x26 -1 x25 x26 +1 x21 x25 x26 +1 x20 +1 x21 -1 x9 x20 -1 x9 x21 -1 x20 x21 +1 x9 x20 x21 +1 x8 +1 x9 -1 x3 x8 -1 x3 x9 -1 x8 x9 +1 x3 x8 x9 +1 x2 +1 x3 -1 x1 x2 -1 x1 x3 -1 x2 x3 +1 x1 x2 x3 +1 x4 +1 x10 +1 x22 +1 x27 +1 x33 +1 x37 +1 x49 +1 x54 +1 x55; 
+1 x1 = 0;
+1 x10 -1 x13= 0;
+1 x12 -1 x13= 0;
+1 x13 -1 x14= 0;
+1 x17 = 1;
+1 x18 = 1;
+1 x19 = 1;
+1 x27 = 1;
+1 x29 = 1;
+1 x30 -1 x29= 0;
+1 x33 = 1;
+1 x34 = 1;
+1 x37 -1 x40= 0;
+1 x39 -1 x40= 0;
+1 x4 = 1;
+1 x40 -1 x41= 0;
+1 x42 = 1;
+1 x45 = 1;
+1 x46 = 1;
+1 x49 = 1;
+1 x50 = 1;
+1 x54 = 1;
+1 x54 -1 x51= 0;
+1 x6 = 1;
+1 x7 = 1;
+1 x7 -1 x6= 0;
-1 x1 +1 x2 >= 0;
-1 x1 +1 x3 >= 0;
+1 x10 -1 x11 >= 0;
-1 x11 +1 x10 >= 0;
-1 x14 +1 x15 >= 0;
-1 x14 +1 x16 >= 0;
-1 x15 +1 x17 >= 0;
-1 x16 +1 x18 >= 0;
-1 x16 +1 x19 >= 0;
-1 x2 +1 x4 >= 0;
-1 x2 +1 x5 >= 0;
-1 x20 +1 x22 >= 0;
-1 x20 +1 x23 >= 0;
-1 x21 +1 x25 >= 0;
-1 x21 +1 x26 >= 0;
+1 x22 -1 x11 >= 0;
-1 x25 +1 x27 >= 0;
-1 x25 +1 x28 >= 0;
-1 x26 +1 x31 >= 0;
-1 x26 +1 x32 >= 0;
-1 x3 +1 x8 >= 0;
-1 x3 +1 x9 >= 0;
-1 x31 +1 x33 >= 0;
-1 x31 +1 x34 >= 0;
-1 x32 +1 x35 >= 0;
-1 x32 +1 x36 >= 0;
-1 x35 +1 x37 >= 0;
-1 x36 +1 x47 >= 0;
-1 x36 +1 x48 >= 0;
+1 x37 -1 x38 >= 0;
-1 x38 +1 x37 >= 0;
-1 x41 +1 x42 >= 0;
-1 x41 +1 x43 >= 0;
-1 x41 +1 x44 >= 0;
-1 x42 +1 x43 >= 0;
-1 x42 +1 x44 >= 0;
-1 x43 +1 x45 >= 0;
-1 x44 +1 x46 >= 0;
-1 x47 +1 x49 >= 0;
-1 x47 +1 x50 >= 0;
-1 x48 +1 x52 >= 0;
-1 x48 +1 x53 >= 0;
+1 x49 -1 x38 >= 0;
-1 x52 +1 x54 >= 0;
-1 x53 +1 x55 >= 0;
-1 x7 +1 x17 >= 0;
-1 x8 +1 x10 >= 0;
-1 x9 +1 x20 >= 0;
-1 x9 +1 x21 >= 0;
